10	5
0	5	1	3	4	5	2
1	3	9	10	6
2	4	10	8	6	7
3	5	7	10	6	9	8
4	3	9	10	8
5	3	6	9	8
6	1	11
7	1	11
8	1	11
9	1	11
10	1	11
11	0
0	0	0	0	0	0	0
1	9	3	2	2	4	1
2	1	2	2	1	2	3
3	5	3	3	5	4	5
4	6	2	4	1	2	4
5	8	4	3	3	2	4
6	5	4	3	5	1	2
7	8	5	2	5	4	4
8	10	5	2	4	5	5
9	1	2	2	3	2	4
10	7	1	5	5	2	3
11	0	0	0	0	0	0
7	7	7	7	7
